10J3M/DAT/10J3MNNX-7.dat
10 3
23.0166 4.7976
28.3428 5.3238
25.5972 5.0594
28.1425 5.305
29.7352 5.453
26.7754 5.1745
27.2258 5.2178
14.3678 3.7905
23.7226 4.8706
31.6278 5.6239
50.6161