10J3M/SOL/10J3MNNX-7.sol
solution status: optimal solution found
objective value:                     86.1845666666667
x#1#1                                               1 	(obj:0)
x#2#2                                               1 	(obj:0)
x#3#2                                               1 	(obj:0)
x#4#2                                               1 	(obj:0)
x#5#3                                               1 	(obj:0)
x#6#1                               0.936589805069827 	(obj:0)
x#6#3                              0.0634101949301726 	(obj:0)
x#7#3                                               1 	(obj:0)
x#8#1                                               1 	(obj:0)
x#9#1                                               1 	(obj:0)
x#10#2                              0.129698134763299 	(obj:0)
x#10#3                              0.870301865236701 	(obj:0)
z                                    86.1845666666667 	(obj:1)
